\ENCODING=ISO-8859-1
\Problem name: 

Minimize
 obj: w1 + w2 + w3 + w4 + w5 + w6 + w7
Subject To
 n1#0:       x1,1 + x1,2 + x1,3 + x1,4 + x1,5 + x1,6 + x1,7  = 1
 n2#1:       x2,1 + x2,2 + x2,3 + x2,4 + x2,5 + x2,6 + x2,7  = 1
 n3#2:       x3,1 + x3,2 + x3,3 + x3,4 + x3,5 + x3,6 + x3,7  = 1
 n4#3:       x4,1 + x4,2 + x4,3 + x4,4 + x4,5 + x4,6 + x4,7  = 1
 n5#4:       x5,1 + x5,2 + x5,3 + x5,4 + x5,5 + x5,6 + x5,7  = 1
 n6#5:       x6,1 + x6,2 + x6,3 + x6,4 + x6,5 + x6,6 + x6,7  = 1
 n7#6:       x7,1 + x7,2 + x7,3 + x7,4 + x7,5 + x7,6 + x7,7  = 1
 _e1,2_1#7:  x1,1 + x2,1 - w1 <= 0
 _e1,2_2#8:  x1,2 + x2,2 - w2 <= 0
 _e1,2_3#9:  x1,3 + x2,3 - w3 <= 0
 _e1,2_4#10: x1,4 + x2,4 - w4 <= 0
 _e1,2_5#11: x1,5 + x2,5 - w5 <= 0
 _e1,2_6#12: x1,6 + x2,6 - w6 <= 0
 _e1,2_7#13: x1,7 + x2,7 - w7 <= 0
 _e2,3_1#14: x2,1 + x3,1 - w1 <= 0
 _e2,3_2#15: x2,2 + x3,2 - w2 <= 0
 _e2,3_3#16: x2,3 + x3,3 - w3 <= 0
 _e2,3_4#17: x2,4 + x3,4 - w4 <= 0
 _e2,3_5#18: x2,5 + x3,5 - w5 <= 0
 _e2,3_6#19: x2,6 + x3,6 - w6 <= 0
 _e2,3_7#20: x2,7 + x3,7 - w7 <= 0
 _e3,4_1#21: x3,1 + x4,1 - w1 <= 0
 _e3,4_2#22: x3,2 + x4,2 - w2 <= 0
 _e3,4_3#23: x3,3 + x4,3 - w3 <= 0
 _e3,4_4#24: x3,4 + x4,4 - w4 <= 0
 _e3,4_5#25: x3,5 + x4,5 - w5 <= 0
 _e3,4_6#26: x3,6 + x4,6 - w6 <= 0
 _e3,4_7#27: x3,7 + x4,7 - w7 <= 0
 _e3,5_1#28: x3,1 + x5,1 - w1 <= 0
 _e3,5_2#29: x3,2 + x5,2 - w2 <= 0
 _e3,5_3#30: x3,3 + x5,3 - w3 <= 0
 _e3,5_4#31: x3,4 + x5,4 - w4 <= 0
 _e3,5_5#32: x3,5 + x5,5 - w5 <= 0
 _e3,5_6#33: x3,6 + x5,6 - w6 <= 0
 _e3,5_7#34: x3,7 + x5,7 - w7 <= 0
 _e3,6_1#35: x3,1 + x6,1 - w1 <= 0
 _e3,6_2#36: x3,2 + x6,2 - w2 <= 0
 _e3,6_3#37: x3,3 + x6,3 - w3 <= 0
 _e3,6_4#38: x3,4 + x6,4 - w4 <= 0
 _e3,6_5#39: x3,5 + x6,5 - w5 <= 0
 _e3,6_6#40: x3,6 + x6,6 - w6 <= 0
 _e3,6_7#41: x3,7 + x6,7 - w7 <= 0
 _e3,7_1#42: x3,1 + x7,1 - w1 <= 0
 _e3,7_2#43: x3,2 + x7,2 - w2 <= 0
 _e3,7_3#44: x3,3 + x7,3 - w3 <= 0
 _e3,7_4#45: x3,4 + x7,4 - w4 <= 0
 _e3,7_5#46: x3,5 + x7,5 - w5 <= 0
 _e3,7_6#47: x3,6 + x7,6 - w6 <= 0
 _e3,7_7#48: x3,7 + x7,7 - w7 <= 0
 _e4,5_1#49: x4,1 + x5,1 - w1 <= 0
 _e4,5_2#50: x4,2 + x5,2 - w2 <= 0
 _e4,5_3#51: x4,3 + x5,3 - w3 <= 0
 _e4,5_4#52: x4,4 + x5,4 - w4 <= 0
 _e4,5_5#53: x4,5 + x5,5 - w5 <= 0
 _e4,5_6#54: x4,6 + x5,6 - w6 <= 0
 _e4,5_7#55: x4,7 + x5,7 - w7 <= 0
 _e4,6_1#56: x4,1 + x6,1 - w1 <= 0
 _e4,6_2#57: x4,2 + x6,2 - w2 <= 0
 _e4,6_3#58: x4,3 + x6,3 - w3 <= 0
 _e4,6_4#59: x4,4 + x6,4 - w4 <= 0
 _e4,6_5#60: x4,5 + x6,5 - w5 <= 0
 _e4,6_6#61: x4,6 + x6,6 - w6 <= 0
 _e4,6_7#62: x4,7 + x6,7 - w7 <= 0
 _e4,7_1#63: x4,1 + x7,1 - w1 <= 0
 _e4,7_2#64: x4,2 + x7,2 - w2 <= 0
 _e4,7_3#65: x4,3 + x7,3 - w3 <= 0
 _e4,7_4#66: x4,4 + x7,4 - w4 <= 0
 _e4,7_5#67: x4,5 + x7,5 - w5 <= 0
 _e4,7_6#68: x4,6 + x7,6 - w6 <= 0
 _e4,7_7#69: x4,7 + x7,7 - w7 <= 0
 _e5,6_1#70: x5,1 + x6,1 - w1 <= 0
 _e5,6_2#71: x5,2 + x6,2 - w2 <= 0
 _e5,6_3#72: x5,3 + x6,3 - w3 <= 0
 _e5,6_4#73: x5,4 + x6,4 - w4 <= 0
 _e5,6_5#74: x5,5 + x6,5 - w5 <= 0
 _e5,6_6#75: x5,6 + x6,6 - w6 <= 0
 _e5,6_7#76: x5,7 + x6,7 - w7 <= 0
 _e5,7_1#77: x5,1 + x7,1 - w1 <= 0
 _e5,7_2#78: x5,2 + x7,2 - w2 <= 0
 _e5,7_3#79: x5,3 + x7,3 - w3 <= 0
 _e5,7_4#80: x5,4 + x7,4 - w4 <= 0
 _e5,7_5#81: x5,5 + x7,5 - w5 <= 0
 _e5,7_6#82: x5,6 + x7,6 - w6 <= 0
 _e5,7_7#83: x5,7 + x7,7 - w7 <= 0
 _e6,7_1#84: x6,1 + x7,1 - w1 <= 0
 _e6,7_2#85: x6,2 + x7,2 - w2 <= 0
 _e6,7_3#86: x6,3 + x7,3 - w3 <= 0
 _e6,7_4#87: x6,4 + x7,4 - w4 <= 0
 _e6,7_5#88: x6,5 + x7,5 - w5 <= 0
 _e6,7_6#89: x6,6 + x7,6 - w6 <= 0
 _e6,7_7#90: x6,7 + x7,7 - w7 <= 0
 s1_1#91:    x1,1 + x2,1 + x3,1 + x4,1 + x5,1 + x6,1 + x7,1 - w1 >= 0
 s1_2#92:    x1,2 + x2,2 + x3,2 + x4,2 + x5,2 + x6,2 + x7,2 - w2 >= 0
 s1_3#93:    x1,3 + x2,3 + x3,3 + x4,3 + x5,3 + x6,3 + x7,3 - w3 >= 0
 s1_4#94:    x1,4 + x2,4 + x3,4 + x4,4 + x5,4 + x6,4 + x7,4 - w4 >= 0
 s1_5#95:    x1,5 + x2,5 + x3,5 + x4,5 + x5,5 + x6,5 + x7,5 - w5 >= 0
 s1_6#96:    x1,6 + x2,6 + x3,6 + x4,6 + x5,6 + x6,6 + x7,6 - w6 >= 0
 s1_7#97:    x1,7 + x2,7 + x3,7 + x4,7 + x5,7 + x6,7 + x7,7 - w7 >= 0
 s2_1#98:    w1 - w2 >= 0
 s2_2#99:    w2 - w3 >= 0
 s2_3#100:   w3 - w4 >= 0
 s2_4#101:   w4 - w5 >= 0
 s2_5#102:   w5 - w6 >= 0
 s2_6#103:   w6 - w7 >= 0
Bounds
 0 <= x1,1 <= 1
 0 <= x1,2 <= 1
 0 <= x1,3 <= 1
 0 <= x1,4 <= 1
 0 <= x1,5 <= 1
 0 <= x1,6 <= 1
 0 <= x1,7 <= 1
 0 <= x2,1 <= 1
 0 <= x2,2 <= 1
 0 <= x2,3 <= 1
 0 <= x2,4 <= 1
 0 <= x2,5 <= 1
 0 <= x2,6 <= 1
 0 <= x2,7 <= 1
 0 <= x3,1 <= 1
 0 <= x3,2 <= 1
 0 <= x3,3 <= 1
 0 <= x3,4 <= 1
 0 <= x3,5 <= 1
 0 <= x3,6 <= 1
 0 <= x3,7 <= 1
 0 <= x4,1 <= 1
 0 <= x4,2 <= 1
 0 <= x4,3 <= 1
 0 <= x4,4 <= 1
 0 <= x4,5 <= 1
 0 <= x4,6 <= 1
 0 <= x4,7 <= 1
 0 <= x5,1 <= 1
 0 <= x5,2 <= 1
 0 <= x5,3 <= 1
 0 <= x5,4 <= 1
 0 <= x5,5 <= 1
 0 <= x5,6 <= 1
 0 <= x5,7 <= 1
 0 <= x6,1 <= 1
 0 <= x6,2 <= 1
 0 <= x6,3 <= 1
 0 <= x6,4 <= 1
 0 <= x6,5 <= 1
 0 <= x6,6 <= 1
 0 <= x6,7 <= 1
 0 <= x7,1 <= 1
 0 <= x7,2 <= 1
 0 <= x7,3 <= 1
 0 <= x7,4 <= 1
 0 <= x7,5 <= 1
 0 <= x7,6 <= 1
 0 <= x7,7 <= 1
 0 <= w1 <= 1
 0 <= w2 <= 1
 0 <= w3 <= 1
 0 <= w4 <= 1
 0 <= w5 <= 1
 0 <= w6 <= 1
 0 <= w7 <= 1
Binaries
 x1,1  x1,2  x1,3  x1,4  x1,5  x1,6  x1,7  x2,1  x2,2  x2,3  x2,4  x2,5  x2,6 
 x2,7  x3,1  x3,2  x3,3  x3,4  x3,5  x3,6  x3,7  x4,1  x4,2  x4,3  x4,4  x4,5 
 x4,6  x4,7  x5,1  x5,2  x5,3  x5,4  x5,5  x5,6  x5,7  x6,1  x6,2  x6,3  x6,4 
 x6,5  x6,6  x6,7  x7,1  x7,2  x7,3  x7,4  x7,5  x7,6  x7,7  w1  w2  w3  w4 
 w5  w6  w7 
End
